nP = 2;
nT = 5;
nC1 = 5;
nC2 = 8;
nA = 75;
nD = 3;

arc_from = [1, 1, 1, 1, 1, 2, 2, 2, 2, 2, 3, 3, 3, 3, 3, 4, 4, 4, 4, 4, 5, 5, 5, 5, 5, 6, 6, 6, 6, 6, 7, 7, 7, 7, 7, 8, 8, 8, 8, 8, 8, 8, 8, 9, 9, 9, 9, 9, 9, 9, 9, 10, 10, 10, 10, 10, 10, 10, 10, 11, 11, 11, 11, 11, 11, 11, 11, 12, 12, 12, 12, 12, 12, 12, 12];
arc_to = [3, 4, 5, 6, 7, 3, 4, 5, 6, 7, 8, 9, 10, 11, 12, 8, 9, 10, 11, 12, 8, 9, 10, 11, 12, 8, 9, 10, 11, 12, 8, 9, 10, 11, 12, 13, 14, 15, 16, 17, 18, 19, 20, 13, 14, 15, 16, 17, 18, 19, 20, 13, 14, 15, 16, 17, 18, 19, 20, 13, 14, 15, 16, 17, 18, 19, 20, 13, 14, 15, 16, 17, 18, 19, 20];

supply = [350.56, 350.56, 0.00, 0.00, 0.00, 0.00, 0.00, 0.00, 0.00, 0.00, 0.00, 0.00, 0.00, 0.00, 0.00, 0.00, 0.00, 0.00, 0.00, 0.00];
demand = [0.00, 0.00, 0.00, 0.00, 0.00, 0.00, 0.00, 60.03, 68.73, 61.75, 71.95, 61.40, 66.31, 68.97, 78.11, 61.86, 62.84, 75.80, 60.42, 78.22];

max_capacity = [795, 1414, 3181];

install_cost = array2d(1..nA, 1..nD, [
  20, 24, 32,
  50, 62, 78,
  20, 24, 32,
  50, 62, 78,
  20, 24, 32,
  50, 62, 78,
  20, 24, 32,
  50, 62, 78,
  20, 24, 32,
  50, 62, 78,
  20, 24, 32,
  50, 62, 78,
  20, 24, 32,
  50, 62, 78,
  20, 24, 32,
  50, 62, 78,
  20, 24, 32,
  50, 62, 78,
  20, 24, 32,
  50, 62, 78,
  20, 24, 32,
  50, 62, 78,
  20, 24, 32,
  50, 62, 78,
  20, 24, 32,
  50, 62, 78,
  20, 24, 32,
  50, 62, 78,
  20, 24, 32,
  50, 62, 78,
  20, 24, 32,
  50, 62, 78,
  20, 24, 32,
  50, 62, 78,
  20, 24, 32,
  50, 62, 78,
  20, 24, 32,
  50, 62, 78,
  20, 24, 32,
  50, 62, 78,
  20, 24, 32,
  50, 62, 78,
  20, 24, 32,
  50, 62, 78,
  20, 24, 32,
  50, 62, 78,
  20, 24, 32,
  50, 62, 78,
  20, 24, 32,
  50, 62, 78,
  20, 24, 32,
  50, 62, 78,
  20, 24, 32,
  50, 62, 78,
  20, 24, 32,
  50, 62, 78,
  20, 24, 32,
  50, 62, 78,
  20, 24, 32,
  50, 62, 78,
  20, 24, 32,
  50, 62, 78,
  20, 24, 32,
  50, 62, 78,
  20, 24, 32,
  50, 62, 78,
  20, 24, 32,
  50, 62, 78,
  20, 24, 32,
  50, 62, 78,
  20, 24, 32,
  50, 62, 78,
  20, 24, 32,
  50, 62, 78,
  20, 24, 32
]);

trans_cost = [7.56, 5.39, 5.81, 4.74, 3.59, 7.88, 4.97, 8.49, 7.21, 5.53, 4.37, 4.90, 4.18, 9.13, 6.25, 7.73, 4.10, 6.27, 7.77, 5.50, 7.55, 4.37, 3.95, 6.57, 5.43, 6.96, 3.03, 7.07, 9.90, 5.96, 6.05, 6.27, 3.21, 6.64, 3.59, 5.36, 7.86, 4.90, 6.75, 7.52, 6.42, 3.94, 5.50, 8.94, 2.96, 5.59, 5.17, 6.18, 7.12, 8.41, 5.59, 7.22, 6.75, 6.71, 5.15, 4.50, 4.35, 4.87, 6.48, 7.14, 6.49, 5.18, 8.71, 8.28, 5.47, 4.76, 6.20, 7.90, 6.50, 6.83, 5.68, 6.68, 8.32, 5.64, 6.21];

% Metadata: {'tamaño': 'pequeña', 'numero': 2, 'grupo': 5, 'demanda_total': 876.39, 'suministro_total': 701.12, 'factor_holgura': 0.8, 'num_arcos': 75}
% Total supply: 701.12
% Total demand: 876.39
% Balance factor: 0.80
